certificates/rado_a15_c152_N32.drat
-30 -32 0
d -30 -10 -32 0
9 10 3 0
-12 -31 -32 0
-31 -32 0
d -12 -31 -32 0
-9 -10 -3 0
12 -32 0
-32 0
31 -12 0
-12 0
10 0
4 0
-8 0
-2 0
-6 0
30 0
-28 0
-9 0
19 0
25 0
26 0
29 0
15 0
23 0
11 0
-21 0
-17 0
-27 0
0
